HFSDDW
15	6	3
0	6	1	79	2	39
0	36	1	49	2	31
0	64	1	96	2	53
0	19	1	29	2	75
0	51	1	66	2	12
0	25	1	6	2	7
0	87	1	49	2	40
0	33	1	22	2	95
0	17	1	46	2	87
0	25	1	91	2	15
0	46	1	55	2	41
0	37	1	84	2	12
0	34	1	15	2	43
0	19	1	31	2	94
0	73	1	77	2	35
LBCmax: 420
RELDUE
-1	196	4	4
-1	18	1	4
-1	161	7	7
-1	0	4	2
-1	353	8	9
-1	0	9	9
-1	0	6	7
-1	0	2	5
-1	281	6	4
-1	0	6	6
-1	264	3	4
-1	199	2	9
-1	139	1	4
-1	39	5	6
-1	0	3	2
DDW
174	218
15	21
129	193
0	0
297	409
0	0
0	0
0	0
278	284
0	0
251	277
197	201
120	158
38	40
0	0
